db/data/29113182022517853617009134181445221164.z3.out
-------------------
2500.091959925
